interdiction/MCDM/NO_CORR/GEN_FROM_60/10_ITEMS_1000_GEN/K5011W02.KNP.mps
NAME          BLANK   
ROWS
 N  OBJROW
 L  R0000000
COLUMNS
    C0000000  OBJROW     -706.         R0000000  44.         
    C0000001  OBJROW     -720.         R0000000  807.        
    C0000002  OBJROW     -594.         R0000000  276.        
    C0000003  OBJROW     -540.         R0000000  409.        
    C0000004  OBJROW     -650.         R0000000  737.        
    C0000005  OBJROW     -608.         R0000000  314.        
    C0000006  OBJROW     -733.         R0000000  395.        
    C0000007  OBJROW     -522.         R0000000  720.        
    C0000008  OBJROW     -317.         R0000000  538.        
    C0000009  OBJROW     -923.         R0000000  298.        
    C0000010  OBJROW     -682.         R0000000  202.        
RHS
    RHS       R0000000  14144.      
BOUNDS
 BV BOUND     C0000000  1.          
 BV BOUND     C0000001  1.          
 BV BOUND     C0000002  1.          
 BV BOUND     C0000003  1.          
 BV BOUND     C0000004  1.          
 BV BOUND     C0000005  1.          
 BV BOUND     C0000006  1.          
 BV BOUND     C0000007  1.          
 BV BOUND     C0000008  1.          
 BV BOUND     C0000009  1.          
 BV BOUND     C0000010  1.          
ENDATA
