data/MCDM/NO_CORR/GEN_FROM_60/10_ITEMS_1000_GEN/K5011W02.KNP.txt
N 11
M 12
LC 11
LC 12
LC 13
LC 14
LC 15
LC 16
LC 17
LC 18
LC 19
LC 20
LC 21
LR 1
LR 2
LR 3
LR 4
LR 5
LR 6
LR 7
LR 8
LR 9
LR 10
LR 11
LR 12
LO -706
LO -720
LO -594
LO -540
LO -650
LO -608
LO -733
LO -522
LO -317
LO -923
LO -682
OS 1
IC 848
IC 315
IC 552
IC 812
IC 229
IC 781
IC 995
IC 45
IC 625
IC 945
IC 263
IB 3205
